z1,z2,z3,nondominated
7,8,5,0
7,8,1,0
3,9,7,0
9,7,3,0
4,4,10,0
10,5,5,0
4,8,8,0
4,10,3,0
9,4,6,0
2,8,8,0
4,9,7,0
6,7,8,0
5,10,2,0
7,9,3,0
4,10,4,0
10,4,5,0
9,5,7,0
8,2,8,0
6,5,9,0
8,1,8,0
4,4,10,0
9,4,6,0
5,8,8,0
10,4,5,0
6,9,4,0
6,8,7,0
9,6,5,0
1,7,9,0
9,6,2,0
9,3,7,0
9,7,2,0
5,10,2,0
9,3,6,0
7,8,6,0
6,9,5,0
8,8,3,0
1,1,1,0
1,1,1,0
1,1,1,0
1,1,1,0
1,1,1,0
1,1,1,0
